# 93182
param k := 6;
param n := 60;
param s := 1;
set E :=  (0,1) (0,13) (0,17) (0,40) (0,56) (1,41) (2,57) (3,12) (3,17) (4,28) (5,8) (5,21) (5,27) (6,12) (7,27) (7,36) (8,11) (9,11) (10,58) (11,18) (11,28) (12,19) (12,22) (14,39) (15,31) (15,55) (16,22) (17,42) (18,30) (18,52) (18,55) (19,29) (20,56) (23,38) (24,57) (25,26) (25,30) (25,49) (26,39) (26,45) (28,37) (28,46) (28,59) (29,33) (32,54) (32,55) (34,54) (35,40) (35,50) (36,38) (37,47) (37,51) (40,53) (41,44) (42,54) (43,51) (46,56) (46,57) (47,48) (50,59) (55,58);